 vasp.6.4.1 05Apr23 (build Aug 09 2024 10:19:00) complex

 executed on             LinuxIFC date 2024.08.21  19:18:28

 INCAR:
   ENCUT = 200
   PREC = High
   EDIFF = 1E-6
   ISMEAR = 1
   SIGMA = 0.1
   NBANDS = 25
   NELM = 100
   LWAVE = .FALSE.
   LCHARG = .FALSE.

 POTCAR:    PAW_PBE Mo 08Apr2002
 POTCAR:    PAW_PBE Mo 08Apr2002
   VRHFIN =Mo: 4p5s4d

   TITEL  = PAW_PBE Mo 08Apr2002
   POMASS =   95.940; ZVAL   =    6.000    mass and valenz
   ENMAX  =  224.584; ENMIN  =  168.438 eV

  PAW_PBE Mo 08Apr2002                  :

 POSCAR: Mo
  positions in cartesian coordinates
 exchange correlation table for  LEXCH =        8
   RHO(1)=    0.500       N(1)  =     2000
   RHO(2)=  100.500       N(2)  =     4000

 ion  position               nearest neighbor table
   1  0.000  0.000  0.000-   2 2.74   2 2.74   2 2.74   2 2.74   2 2.74   2 2.74   2 2.74   2 2.74

   2  0.500  0.500  0.500-   1 2.74   1 2.74   1 2.74   1 2.74   1 2.74   1 2.74   1 2.74   1 2.74

  LATTYP: Found a simple cubic cell.
 ALAT       =     3.1676179400

  Lattice vectors:

 A1 = (   3.1676179400,   0.0000000000,   0.0000000000)
 A2 = (   0.0000000000,   3.1676179400,   0.0000000000)
 A3 = (   0.0000000000,   0.0000000000,   3.1676179400)

Analysis of symmetry for initial positions (statically):
 Subroutine PRICEL returns following result:

  LATTYP: Found a body centered cubic cell.
 ALAT       =     3.1676179400

[...]

   2 primitive cells build up your supercell.

 Routine SETGRP: Setting up the symmetry group for a
 simple cubic supercell.

 Subroutine GETGRP returns: Found 48 space group operations
 (whereof 48 operations were pure point group operations)
 out of a pool of 48 trial point group operations.

The static configuration has the point symmetry O_h .

Analysis of symmetry for dynamics (positions and initial velocities):
 Subroutine PRICEL returns following result:

  LATTYP: Found a body centered cubic cell.
 ALAT       =     3.1676179400

  Lattice vectors:

 A1 = (   1.5838089700,   1.5838089700,  -1.5838089700)
 A2 = (  -1.5838089700,   1.5838089700,   1.5838089700)
 A3 = (   1.5838089700,  -1.5838089700,   1.5838089700)

   2 primitive cells build up your supercell.

 Routine SETGRP: Setting up the symmetry group for a
 simple cubic supercell.

 Subroutine GETGRP returns: Found 48 space group operations
 (whereof 48 operations were pure point group operations)
 out of a pool of 48 trial point group operations.

The dynamic configuration has the point symmetry O_h .

 Subroutine INISYM returns: Found 48 space group operations
 (whereof 48 operations are pure point group operations),
 and found     2 'primitive' translations

                                     Primitive cell

  volume of cell :      15.8916

  direct lattice vectors                    reciprocal lattice vectors
     1.583808970  1.583808970 -1.583808970     0.315694638  0.315694638  0.000000000
    -1.583808970  1.583808970  1.583808970    -0.000000000  0.315694638  0.315694638
     1.583808970 -1.583808970  1.583808970     0.315694638  0.000000000  0.315694638

  length of vectors
     2.743237606  2.743237606  2.743237606     0.446459639  0.446459639  0.446459639

  position of ions in fractional coordinates (direct lattice)
     0.000000000  0.000000000  0.000000000

  ion indices of the primitive-cell ions
   primitive index   ion index
                 1           1

 KPOINTS: Automatic generation

Automatic generation of k-mesh.
 Grid dimensions read from file:
 generate k-points for:   19   19   19

 Generating k-lattice:

  Cartesian coordinates                     Fractional coordinates (reciprocal lattice)
     0.016615507  0.000000000  0.000000000     0.052631579  0.000000000  0.000000000
     0.000000000  0.016615507  0.000000000     0.000000000  0.052631579  0.000000000
     0.000000000  0.000000000  0.016615507     0.000000000  0.000000000  0.052631579

  Length of vectors
     0.016615507  0.016615507  0.016615507

  Shift w.r.t. Gamma in fractional coordinates (k-lattice)
     0.000000000  0.000000000  0.000000000

 Subroutine IBZKPT returns following result:

 Found    220 irreducible k-points:

 Following reciprocal coordinates:
            Coordinates               Weight
  0.000000  0.000000  0.000000      1.000000
  0.052632  0.000000  0.000000      6.000000
  0.105263  0.000000  0.000000      6.000000
  0.157895  0.000000  0.000000      6.000000
  0.210526  0.000000  0.000000      6.000000
  0.263158  0.000000  0.000000      6.000000
  0.315789  0.000000  0.000000      6.000000
  0.368421  0.000000  0.000000      6.000000
  0.421053  0.000000  0.000000      6.000000
  0.473684  0.000000  0.000000      6.000000
  0.052632  0.052632  0.000000     12.000000
  0.105263  0.052632  0.000000     24.000000
  0.157895  0.052632  0.000000     24.000000
  0.210526  0.052632  0.000000     24.000000
  0.263158  0.052632  0.000000     24.000000
  0.315789  0.052632  0.000000     24.000000
  0.368421  0.052632  0.000000     24.000000
  0.421053  0.052632  0.000000     24.000000
  0.473684  0.052632  0.000000     24.000000
  0.105263  0.105263  0.000000     12.000000
  0.157895  0.105263  0.000000     24.000000
  0.210526  0.105263  0.000000     24.000000
  0.263158  0.105263  0.000000     24.000000
  0.315789  0.105263  0.000000     24.000000
  0.368421  0.105263  0.000000     24.000000
  0.421053  0.105263  0.000000     24.000000
  0.473684  0.105263  0.000000     24.000000
  0.157895  0.157895  0.000000     12.000000
  0.210526  0.157895  0.000000     24.000000
  0.263158  0.157895  0.000000     24.000000
  0.315789  0.157895  0.000000     24.000000
  0.368421  0.157895  0.000000     24.000000
  0.421053  0.157895  0.000000     24.000000
  0.473684  0.157895  0.000000     24.000000
  0.210526  0.210526  0.000000     12.000000
  0.263158  0.210526  0.000000     24.000000
  0.315789  0.210526  0.000000     24.000000
  0.368421  0.210526  0.000000     24.000000
  0.421053  0.210526  0.000000     24.000000
  0.473684  0.210526  0.000000     24.000000
  0.263158  0.263158  0.000000     12.000000
  0.315789  0.263158  0.000000     24.000000
  0.368421  0.263158  0.000000     24.000000
  0.421053  0.263158  0.000000     24.000000
  0.473684  0.263158  0.000000     24.000000
  0.315789  0.315789  0.000000     12.000000
  0.368421  0.315789  0.000000     24.000000
  0.421053  0.315789  0.000000     24.000000
  0.473684  0.315789  0.000000     24.000000
  0.368421  0.368421  0.000000     12.000000
  0.421053  0.368421  0.000000     24.000000
  0.473684  0.368421  0.000000     24.000000
  0.421053  0.421053  0.000000     12.000000
  0.473684  0.421053  0.000000     24.000000
  0.473684  0.473684  0.000000     12.000000
  0.052632  0.052632  0.052632      8.000000
  0.105263  0.052632  0.052632     24.000000
  0.157895  0.052632  0.052632     24.000000
  0.210526  0.052632  0.052632     24.000000
  0.263158  0.052632  0.052632     24.000000
[...]
  0.421053  0.368421  0.315789     48.000000
  0.473684  0.368421  0.315789     48.000000
  0.421053  0.421053  0.315789     24.000000
  0.473684  0.421053  0.315789     48.000000
  0.473684  0.473684  0.315789     24.000000
  0.368421  0.368421  0.368421      8.000000
  0.421053  0.368421  0.368421     24.000000
  0.473684  0.368421  0.368421     24.000000
  0.421053  0.421053  0.368421     24.000000
  0.473684  0.421053  0.368421     48.000000
  0.473684  0.473684  0.368421     24.000000
  0.421053  0.421053  0.421053      8.000000
  0.473684  0.421053  0.421053     24.000000
  0.473684  0.473684  0.421053     24.000000
  0.473684  0.473684  0.473684      8.000000

 Following cartesian coordinates:
            Coordinates               Weight
  0.000000  0.000000  0.000000      1.000000
  0.016616  0.000000  0.000000      6.000000
  0.033231  0.000000  0.000000      6.000000
  0.049847  0.000000  0.000000      6.000000
  0.066462  0.000000  0.000000      6.000000
  0.083078  0.000000  0.000000      6.000000
  0.099693  0.000000  0.000000      6.000000
  0.116309  0.000000  0.000000      6.000000
  0.132924  0.000000  0.000000      6.000000
  0.149540  0.000000  0.000000      6.000000
  0.016616  0.016616  0.000000     12.000000
  0.033231  0.016616  0.000000     24.000000
  0.049847  0.016616  0.000000     24.000000
  0.066462  0.016616  0.000000     24.000000
  0.083078  0.016616  0.000000     24.000000
  0.099693  0.016616  0.000000     24.000000
  0.116309  0.016616  0.000000     24.000000
  0.132924  0.016616  0.000000     24.000000
  0.149540  0.016616  0.000000     24.000000
  0.033231  0.033231  0.000000     12.000000
  0.049847  0.033231  0.000000     24.000000
  0.066462  0.033231  0.000000     24.000000
  0.083078  0.033231  0.000000     24.000000
  0.099693  0.033231  0.000000     24.000000
  0.116309  0.033231  0.000000     24.000000
  0.132924  0.033231  0.000000     24.000000
  0.149540  0.033231  0.000000     24.000000
  0.049847  0.049847  0.000000     12.000000
  0.066462  0.049847  0.000000     24.000000
  0.083078  0.049847  0.000000     24.000000
  0.099693  0.049847  0.000000     24.000000
  0.116309  0.049847  0.000000     24.000000
  0.132924  0.049847  0.000000     24.000000
  0.149540  0.049847  0.000000     24.000000
  0.066462  0.066462  0.000000     12.000000
  0.083078  0.066462  0.000000     24.000000
  0.099693  0.066462  0.000000     24.000000
  0.116309  0.066462  0.000000     24.000000
  0.132924  0.066462  0.000000     24.000000
  0.149540  0.066462  0.000000     24.000000
  0.083078  0.083078  0.000000     12.000000
  0.099693  0.083078  0.000000     24.000000
  0.116309  0.083078  0.000000     24.000000
  0.132924  0.083078  0.000000     24.000000
  0.149540  0.083078  0.000000     24.000000
  0.099693  0.099693  0.000000     12.000000
  0.116309  0.099693  0.000000     24.000000
  0.132924  0.099693  0.000000     24.000000
  0.149540  0.099693  0.000000     24.000000
  0.116309  0.116309  0.000000     12.000000
  0.132924  0.116309  0.000000     24.000000
  0.149540  0.116309  0.000000     24.000000
  0.132924  0.132924  0.000000     12.000000
  0.149540  0.132924  0.000000     24.000000
  0.149540  0.149540  0.000000     12.000000
  0.016616  0.016616  0.016616      8.000000
  0.033231  0.016616  0.016616     24.000000
  0.049847  0.016616  0.016616     24.000000
  0.066462  0.016616  0.016616     24.000000
  0.083078  0.016616  0.016616     24.000000
[...]
  0.132924  0.116309  0.099693     48.000000
  0.149540  0.116309  0.099693     48.000000
  0.132924  0.132924  0.099693     24.000000
  0.149540  0.132924  0.099693     48.000000
  0.149540  0.149540  0.099693     24.000000
  0.116309  0.116309  0.116309      8.000000
  0.132924  0.116309  0.116309     24.000000
  0.149540  0.116309  0.116309     24.000000
  0.132924  0.132924  0.116309     24.000000
  0.149540  0.132924  0.116309     48.000000
  0.149540  0.149540  0.116309     24.000000
  0.132924  0.132924  0.132924      8.000000
  0.149540  0.132924  0.132924     24.000000
  0.149540  0.149540  0.132924     24.000000
  0.149540  0.149540  0.149540      8.000000

 SYSTEM =  unknown system
 POSCAR =  Mo

 Startparameter for this run:
   NWRITE =      2    write-flag & timer
[...]
   0.31578947  0.10526316  0.00000000       0.003
   0.36842105  0.10526316  0.00000000       0.003
   0.42105263  0.10526316  0.00000000       0.003
   0.47368421  0.10526316  0.00000000       0.003
   0.15789474  0.15789474  0.00000000       0.002
   0.21052632  0.15789474  0.00000000       0.003
   0.26315789  0.15789474  0.00000000       0.003
   0.31578947  0.15789474  0.00000000       0.003
   0.36842105  0.15789474  0.00000000       0.003
   0.42105263  0.15789474  0.00000000       0.003
   0.47368421  0.15789474  0.00000000       0.003
   0.21052632  0.21052632  0.00000000       0.002
   0.26315789  0.21052632  0.00000000       0.003
   0.31578947  0.21052632  0.00000000       0.003
   0.36842105  0.21052632  0.00000000       0.003
   0.42105263  0.21052632  0.00000000       0.003
   0.47368421  0.21052632  0.00000000       0.003
   0.26315789  0.26315789  0.00000000       0.002
   0.31578947  0.26315789  0.00000000       0.003
   0.36842105  0.26315789  0.00000000       0.003
   0.42105263  0.26315789  0.00000000       0.003
   0.47368421  0.26315789  0.00000000       0.003
   0.31578947  0.31578947  0.00000000       0.002
   0.36842105  0.31578947  0.00000000       0.003
   0.42105263  0.31578947  0.00000000       0.003
   0.47368421  0.31578947  0.00000000       0.003
   0.36842105  0.36842105  0.00000000       0.002
   0.42105263  0.36842105  0.00000000       0.003
   0.47368421  0.36842105  0.00000000       0.003
   0.42105263  0.42105263  0.00000000       0.002
   0.47368421  0.42105263  0.00000000       0.003
   0.47368421  0.47368421  0.00000000       0.002
   0.05263158  0.05263158  0.05263158       0.001
   0.10526316  0.05263158  0.05263158       0.003
   0.15789474  0.05263158  0.05263158       0.003
   0.21052632  0.05263158  0.05263158       0.003
   0.26315789  0.05263158  0.05263158       0.003
[...]
   0.42105263  0.36842105  0.31578947       0.007
   0.47368421  0.36842105  0.31578947       0.007
   0.42105263  0.42105263  0.31578947       0.003
   0.47368421  0.42105263  0.31578947       0.007
   0.47368421  0.47368421  0.31578947       0.003
   0.36842105  0.36842105  0.36842105       0.001
   0.42105263  0.36842105  0.36842105       0.003
   0.47368421  0.36842105  0.36842105       0.003
   0.42105263  0.42105263  0.36842105       0.003
   0.47368421  0.42105263  0.36842105       0.007
   0.47368421  0.47368421  0.36842105       0.003
   0.42105263  0.42105263  0.42105263       0.001
   0.47368421  0.42105263  0.42105263       0.003
   0.47368421  0.47368421  0.42105263       0.003
   0.47368421  0.47368421  0.47368421       0.001

 position of ions in fractional coordinates (direct lattice)
   0.00000000  0.00000000  0.00000000
   0.50000000  0.50000000  0.50000000

 position of ions in cartesian coordinates  (Angst):
   0.00000000  0.00000000  0.00000000
   1.58380897  1.58380897  1.58380897

 k-point   1 :   0.0000 0.0000 0.0000  plane waves:     203
 k-point   2 :   0.0526 0.0000 0.0000  plane waves:     203
 k-point   3 :   0.1053 0.0000 0.0000  plane waves:     195
 k-point   4 :   0.1579 0.0000 0.0000  plane waves:     203
 k-point   5 :   0.2105 0.0000 0.0000  plane waves:     211
 k-point   6 :   0.2632 0.0000 0.0000  plane waves:     211
 k-point   7 :   0.3158 0.0000 0.0000  plane waves:     207
 k-point   8 :   0.3684 0.0000 0.0000  plane waves:     204
 k-point   9 :   0.4211 0.0000 0.0000  plane waves:     212
 k-point  10 :   0.4737 0.0000 0.0000  plane waves:     212
 k-point  11 :   0.0526 0.0526 0.0000  plane waves:     201
 k-point  12 :   0.1053 0.0526 0.0000  plane waves:     202
 k-point  13 :   0.1579 0.0526 0.0000  plane waves:     205
 k-point  14 :   0.2105 0.0526 0.0000  plane waves:     209
 k-point  15 :   0.2632 0.0526 0.0000  plane waves:     213
 k-point  16 :   0.3158 0.0526 0.0000  plane waves:     211
 k-point  17 :   0.3684 0.0526 0.0000  plane waves:     206
 k-point  18 :   0.4211 0.0526 0.0000  plane waves:     204
 k-point  19 :   0.4737 0.0526 0.0000  plane waves:     205
 k-point  20 :   0.1053 0.1053 0.0000  plane waves:     201
 k-point  21 :   0.1579 0.1053 0.0000  plane waves:     206
 k-point  22 :   0.2105 0.1053 0.0000  plane waves:     208
 k-point  23 :   0.2632 0.1053 0.0000  plane waves:     207
 k-point  24 :   0.3158 0.1053 0.0000  plane waves:     207
 k-point  25 :   0.3684 0.1053 0.0000  plane waves:     208
 k-point  26 :   0.4211 0.1053 0.0000  plane waves:     204
 k-point  27 :   0.4737 0.1053 0.0000  plane waves:     205
 k-point  28 :   0.1579 0.1579 0.0000  plane waves:     203
 k-point  29 :   0.2105 0.1579 0.0000  plane waves:     204
 k-point  30 :   0.2632 0.1579 0.0000  plane waves:     206
 k-point  31 :   0.3158 0.1579 0.0000  plane waves:     207
 k-point  32 :   0.3684 0.1579 0.0000  plane waves:     206
 k-point  33 :   0.4211 0.1579 0.0000  plane waves:     204
 k-point  34 :   0.4737 0.1579 0.0000  plane waves:     204
 k-point  35 :   0.2105 0.2105 0.0000  plane waves:     205
 k-point  36 :   0.2632 0.2105 0.0000  plane waves:     204
 k-point  37 :   0.3158 0.2105 0.0000  plane waves:     206
 k-point  38 :   0.3684 0.2105 0.0000  plane waves:     206
 k-point  39 :   0.4211 0.2105 0.0000  plane waves:     206
 k-point  40 :   0.4737 0.2105 0.0000  plane waves:     202
 k-point  41 :   0.2632 0.2632 0.0000  plane waves:     205
 k-point  42 :   0.3158 0.2632 0.0000  plane waves:     203
 k-point  43 :   0.3684 0.2632 0.0000  plane waves:     205
 k-point  44 :   0.4211 0.2632 0.0000  plane waves:     204
 k-point  45 :   0.4737 0.2632 0.0000  plane waves:     202
 k-point  46 :   0.3158 0.3158 0.0000  plane waves:     201
 k-point  47 :   0.3684 0.3158 0.0000  plane waves:     204
 k-point  48 :   0.4211 0.3158 0.0000  plane waves:     206
 k-point  49 :   0.4737 0.3158 0.0000  plane waves:     205
 k-point  50 :   0.3684 0.3684 0.0000  plane waves:     203
 k-point  51 :   0.4211 0.3684 0.0000  plane waves:     205
 k-point  52 :   0.4737 0.3684 0.0000  plane waves:     208
 k-point  53 :   0.4211 0.4211 0.0000  plane waves:     208
 k-point  54 :   0.4737 0.4211 0.0000  plane waves:     208
 k-point  55 :   0.4737 0.4737 0.0000  plane waves:     202
 k-point  56 :   0.0526 0.0526 0.0526  plane waves:     197
 k-point  57 :   0.1053 0.0526 0.0526  plane waves:     203
 k-point  58 :   0.1579 0.0526 0.0526  plane waves:     205
 k-point  59 :   0.2105 0.0526 0.0526  plane waves:     207
 k-point  60 :   0.2632 0.0526 0.0526  plane waves:     208
[...]
 k-point 206 :   0.4211 0.3684 0.3158  plane waves:     198
 k-point 207 :   0.4737 0.3684 0.3158  plane waves:     197
 k-point 208 :   0.4211 0.4211 0.3158  plane waves:     196
 k-point 209 :   0.4737 0.4211 0.3158  plane waves:     196
 k-point 210 :   0.4737 0.4737 0.3158  plane waves:     196
 k-point 211 :   0.3684 0.3684 0.3684  plane waves:     193
 k-point 212 :   0.4211 0.3684 0.3684  plane waves:     192
 k-point 213 :   0.4737 0.3684 0.3684  plane waves:     192
 k-point 214 :   0.4211 0.4211 0.3684  plane waves:     194
 k-point 215 :   0.4737 0.4211 0.3684  plane waves:     196
 k-point 216 :   0.4737 0.4737 0.3684  plane waves:     200
 k-point 217 :   0.4211 0.4211 0.4211  plane waves:     199
 k-point 218 :   0.4737 0.4211 0.4211  plane waves:     200
 k-point 219 :   0.4737 0.4737 0.4211  plane waves:     207
 k-point 220 :   0.4737 0.4737 0.4737  plane waves:     208

 maximum and minimum number of plane-waves per node :       213      192

 maximum number of plane-waves:       213
 maximum index in each direction:
   IXMAX=    3   IYMAX=    3   IZMAX=    3
   IXMIN=   -4   IYMIN=   -4   IZMIN=   -4

 serial   3D FFT for wavefunctions
 parallel 3D FFT for charge:
    minimum data exchange during FFTs selected (reduces bandwidth)

 Broyden mixing: mesh for mixing (old mesh)
   NGX =  7   NGY =  7   NGZ =  7
  (NGX  = 28   NGY  = 28   NGZ  = 28)
  gives a total of    343 points

 initial charge density was supplied:
 charge density of overlapping atoms calculated
 number of electron      12.0000000 magnetization
 keeping initial charge density in first step

 Maximum index for augmentation-charges          373 (set IRDMAX)

 First call to EWALD:  gamma=   0.560
 Maximum number of real-space cells 3x 3x 3
 Maximum number of reciprocal cells 3x 3x 3

--------------------------------------- Ionic step        1  -------------------------------------------

--------------------------------------- Iteration      1(   1)  ---------------------------------------

 eigenvalue-minimisations  : 15344
 total energy-change (2. order) :-0.4154285E+01  (-0.2862300E+03)
 number of electron      12.0000000 magnetization
 augmentation part       12.0000000 magnetization

 Free energy of the ion-electron system (eV)
  alpha Z        PSCENC =        86.38741185
  Ewald energy   TEWEN  =      -595.57395580
  -Hartree energ DENC   =       -21.63827264
  -exchange      EXHF   =         0.00000000
  -V(xc)+E(xc)   XCENC  =      -122.01732789
  PAW double counting   =       531.16611616     -388.83377293
  entropy T*S    EENTRO =         0.00017824
  eigenvalues    EBANDS =        71.52281449
  atomic energy  EATOM  =       434.83252350
  Solvation  Ediel_sol  =         0.00000000
  free energy    TOTEN  =        -4.15428503 eV

  energy without entropy =       -4.15446327  energy(sigma->0) =       -4.15434444

[...]

 Broyden mixing:
  rms(total) = 0.19401E+01    rms(broyden)= 0.19394E+01
  rms(prec ) = 0.27171E+01
  weight for this iteration     100.00

[...]

 eigenvalue-minimisations  : 17072
 total energy-change (2. order) : 0.1212345E+01  (-0.9373428E-01)
 number of electron      11.9999993 magnetization
 augmentation part        2.0959210 magnetization

[...]

 eigenvalues of (default mixing * dielectric matrix)
  average eigenvalue GAMMA=   1.5615
  1.5615

[...]

 eigenvalue-minimisations  : 12864
 total energy-change (2. order) : 0.3979614E-05  (-0.2071727E-07)
 number of electron      11.9999992 magnetization
 augmentation part        2.2245359 magnetization

 Broyden mixing:
  rms(total) = 0.17166E-03    rms(broyden)= 0.17126E-03
  rms(prec ) = 0.21909E-03
  weight for this iteration     100.00

 eigenvalues of (default mixing * dielectric matrix)
  average eigenvalue GAMMA=   1.7341
  2.6173  2.3909  0.9601  1.0253  1.7867  1.6240

[...]

--------------------------------------- Iteration      1(  12)  ---------------------------------------

 eigenvalue-minimisations  :  7920
 total energy-change (2. order) :-0.2346447E-08  (-0.1258517E-08)
 number of electron      11.9999992 magnetization
 augmentation part        2.2245359 magnetization

 Free energy of the ion-electron system (eV)
  alpha Z        PSCENC =        86.38741185
  Ewald energy   TEWEN  =      -595.57395580
  -Hartree energ DENC   =       -11.09389798
  -exchange      EXHF   =         0.00000000
  -V(xc)+E(xc)   XCENC  =      -121.00746689
  PAW double counting   =       808.65316008     -669.51550024
  entropy T*S    EENTRO =        -0.00006397
  eigenvalues    EBANDS =        45.45585540
  atomic energy  EATOM  =       434.83252350
  Solvation  Ediel_sol  =         0.00000000
  free energy    TOTEN  =       -21.86193406 eV

  energy without entropy =      -21.86187009  energy(sigma->0) =      -21.86191274

 average (electrostatic) potential at core
  the test charge radii are     1.2296
  (the norm of the test charge is              1.0000)
       1 -37.0236       2 -37.0236

 E-fermi :   6.7007     XC(G=0): -13.0019     alpha+bet :-14.0072

 Fermi energy:         6.7007225278

 k-point     1 :       0.0000    0.0000    0.0000
  band No.  band energies     occupation
      1      -0.4909      2.00000
      2       1.3391      2.00000
      3       1.3391      2.00000
      4       5.3415      2.00000
      5       5.3415      2.00000
      6       5.3415      2.00000
      7       8.2571     -0.00000
      8       8.2571     -0.00000
      9      10.4470      0.00000
     10      10.4470      0.00000
     11      10.4470      0.00000
     12      15.9277      0.00000
     13      15.9277      0.00000
     14      15.9277      0.00000
     15      23.0222      0.00000
     16      23.0222      0.00000
     17      23.0222      0.00000
     18      26.0435      0.00000
     19      27.3180      0.00000
     20      27.3180      0.00000
     21      33.2340      0.00000
     22      33.2340      0.00000
     23      33.5397      0.00000
     24      33.6343      0.00000
     25      33.6527      0.00000
     26      37.3105      0.00000
     27      37.3105      0.00000
     28      37.3105      0.00000
     29      43.8940      0.00000
     30      43.8940      0.00000
     31      43.8940      0.00000
     32      45.2781      0.00000

[...]

 k-point   220 :       0.4737    0.4737    0.4737
  band No.  band energies     occupation
      1       3.7340      2.00000
      2       3.8895      2.00000
      3       3.8895      2.00000
      4       4.1618      2.00000
      5       4.1618      2.00000
      6       4.2729      2.00000
      7       8.9644     -0.00000
      8       8.9644     -0.00000
      9       8.9645     -0.00000
     10       8.9645     -0.00000
     11      16.4306      0.00000
     12      16.4560      0.00000
     13      17.5188      0.00000
     14      17.8354      0.00000
     15      17.8354      0.00000
     16      18.5847      0.00000
     17      18.5847      0.00000
     18      18.9931      0.00000
     19      33.0175      0.00000
     20      33.4746      0.00000
     21      33.4746      0.00000
     22      33.6122      0.00000
     23      33.6124      0.00000
     24      34.6335      0.00000
     25      34.6335      0.00000
     26      35.3524      0.00000
     27      36.5255      0.00000
     28      37.0763      0.00000
     29      37.0763      0.00000
     30      37.8436      0.00000
     31      37.8436      0.00000
     32      38.0195      0.00000

 soft charge-density along one line, spin component           1
         0         1         2         3         4         5         6         7         8         9
 total charge-density along one line

------------------------ aborting loop because EDIFF is reached ----------------------------------------

  FORCE on cell =-STRESS in cart. coord.  units (eV):
  Direction    XX          YY          ZZ          XY          YZ          ZX
  Alpha Z    86.38741    86.38741    86.38741
  Ewald    -198.52464  -198.52464  -198.52464    -0.00000    -0.00000    -0.00000
  Hartree     3.69795     3.69795     3.69795    -0.00000    -0.00000    -0.00000
  E(xc)     -56.04295   -56.04295   -56.04295     0.00000    -0.00000     0.00000
  Local      28.97417    28.97417    28.97417     0.00000    -0.00000     0.00000
  n-local   -40.67249   -36.40217   -33.55475     2.48312    -1.10419     0.17040
  augment    18.26277    18.26277    18.26277    -0.00000    -0.00000    -0.00000
  Kinetic   141.37953   150.70144   162.77770     7.09565    -2.73829     1.60724
  Fock        0.00000     0.00000     0.00000     0.00000     0.00000     0.00000
  Total      -2.50220    -2.50220    -2.50220     0.00000     0.00000    -0.00000
  in kB    -126.13476  -126.13476  -126.13476     0.00000     0.00000    -0.00000

 VOLUME and BASIS-vectors are now :
  energy-cutoff  :      200.00
  volume of cell :       31.78
      direct lattice vectors                 reciprocal lattice vectors
     3.167617940  0.000000000  0.000000000     0.315694638  0.000000000  0.000000000
     0.000000000  3.167617940  0.000000000     0.000000000  0.315694638  0.000000000
     0.000000000  0.000000000  3.167617940     0.000000000  0.000000000  0.315694638

  length of vectors
     3.167617940  3.167617940  3.167617940     0.315694638  0.315694638  0.315694638

 FORCES acting on ions
    electron-ion (+dipol)            ewald-force                    non-local-force                 convergence-correction
   0.388E-14 0.235E-14 -.192E-14   0.499E-15 -.775E-15 -.444E-15   0.121E-26 -.187E-25 -.198E-26   -.545E-15 0.979E-16 -.800E-15
   0.180E-13 -.829E-13 0.133E-13   -.299E-15 0.521E-15 0.109E-14   -.221E-25 -.314E-25 -.459E-26   -.400E-15 -.977E-15 -.588E-15
   0.219E-13 -.806E-13 0.114E-13   0.199E-15 -.254E-15 0.644E-15   -.209E-25 -.501E-25 -.657E-26   -.945E-15 -.879E-15 -.139E-14

 POSITION                                       TOTAL-FORCE (eV/Angst)
      0.00000      0.00000      0.00000        -0.000000     -0.000000     -0.000000
      1.58381      1.58381      1.58381         0.000000      0.000000      0.000000
    total drift:                                0.000000     -0.000000      0.000000

  FREE ENERGIE OF THE ION-ELECTRON SYSTEM (eV)
  free  energy   TOTEN  =       -21.86193406 eV

  energy  without entropy=      -21.86187009  energy(sigma->0) =      -21.86191274